c This is an instance of the exact track of PACE 2020 Challenge, see https://pacechallenge.org/2020/ 
c TYPE: computer science 
c ORIGIN: https://github.com/freetdi/CFGs 
c DESCRIPTION: A control-flow graph of a C function 
p tdp 20 24
1 2
2 13
3 5
4 5
5 6
6 7
6 11
7 8
8 9
9 10
10 11
11 12
13 14
14 15
14 5
15 16
16 17
16 5
17 4
17 18
17 20
18 19
19 5
20 3
